proyfinal/src/viki/013/experimentInOfficeAgust.take6.output/314b0d1a-d08a-42ff-ac52-31b951ab4ef4.als.out
Reading from standard input... Use '--help' for help.
============================[ Problem Statistics ]=============================
|                                                                             |
|  Number of variables:         87638                                         |
|  Number of clauses:          161767                                         |
|  Parse time:                   0.04 s                                       |
|                                                                             |
============================[ Search Statistics ]==============================
| Conflicts |          ORIGINAL         |          LEARNT          | Progress |
|           |    Vars  Clauses Literals |    Limit  Clauses Lit/Cl |          |
===============================================================================
|       100 |   63210   108247   270344 |    39690      100     13 | 27.874 % |
|       250 |   63210   108247   270344 |    43659      250     20 | 27.874 % |
|       475 |   63210   108247   270344 |    48025      475     36 | 27.874 % |
|       812 |   63210   108247   270344 |    52828      812     52 | 27.874 % |
|      1318 |   63210   108247   270344 |    58110     1318    101 | 27.874 % |
|      2077 |   63159   108034   269856 |    63922     2073     92 | 27.932 % |
|      3216 |   63140   107958   269678 |    70314     3211     86 | 27.954 % |
|      4924 |   63140   107958   269678 |    77345     4919     83 | 27.954 % |
|      7486 |   63140   107958   269678 |    85080     7481     85 | 27.954 % |
|     11330 |   63135   107898   269544 |    93588    11182     88 | 27.959 % |
===============================================================================
restarts              : 62
conflicts             : 15791          (7165 /sec)
decisions             : 53274          (0.00 % random) (24171 /sec)
propagations          : 19796751       (8982159 /sec)
conflict literals     : 1485929        (50.40 % deleted)
Memory used           : 38.80 MB
CPU time              : 2.20401 s

INDETERMINATE
